NAME: random-71-27935
TYPE: TSP
COMMENT: size=71 seed=27935
DIMENSION: 144
EDGE_WEIGHT_TYPE: EUC_2D
NODE_COORD_SECTION
+0 545 737
-0 545 737
+1 896 268
-1 482 222
+2 533 745
-2 89 952
+3 209 915
-3 874 646
+4 789 510
-4 30 271
+5 991 967
-5 824 618
+6 461 162
-6 422 181
+7 820 436
-7 132 386
+8 563 370
-8 736 512
+9 581 205
-9 817 0
+10 198 111
-10 466 692
+11 75 165
-11 512 127
+12 544 218
-12 371 840
+13 606 327
-13 288 953
+14 210 88
-14 44 228
+15 733 539
-15 281 376
+16 968 602
-16 697 982
+17 855 535
-17 41 278
+18 945 186
-18 469 912
+19 863 7
-19 391 310
+20 650 96
-20 494 978
+21 57 183
-21 973 932
+22 92 796
-22 222 626
+23 340 984
-23 856 306
+24 843 66
-24 149 852
+25 612 758
-25 504 473
+26 877 787
-26 990 14
+27 827 765
-27 279 744
+28 251 971
-28 340 896
+29 209 944
-29 725 199
+30 73 305
-30 689 749
+31 75 364
-31 255 3
+32 319 580
-32 404 170
+33 917 269
-33 426 978
+34 705 433
-34 644 648
+35 502 202
-35 885 9
+36 164 204
-36 633 205
+37 404 648
-37 406 974
+38 385 5
-38 544 539
+39 482 376
-39 20 659
+40 824 187
-40 30 931
+41 106 254
-41 342 491
+42 414 376
-42 702 610
+43 27 473
-43 845 15
+44 607 887
-44 86 252
+45 314 50
-45 61 143
+46 604 211
-46 112 145
+47 916 644
-47 532 29
+48 388 339
-48 617 226
+49 598 560
-49 881 181
+50 978 273
-50 805 593
+51 360 971
-51 821 465
+52 332 640
-52 885 3
+53 451 255
-53 516 108
+54 384 656
-54 342 524
+55 328 325
-55 851 373
+56 82 739
-56 993 194
+57 482 353
-57 684 886
+58 725 504
-58 665 576
+59 605 52
-59 562 96
+60 72 324
-60 605 259
+61 5 894
-61 290 350
+62 851 86
-62 788 2
+63 339 449
-63 33 972
+64 750 368
-64 234 935
+65 224 222
-65 688 199
+66 341 716
-66 959 745
+67 287 508
-67 489 432
+68 170 920
-68 595 897
+69 333 881
-69 3 596
+70 114 768
-70 364 693
+71 641 582
-71 663 841
PRECEDENCE_SECTION
+0 -0
+1 -1
+2 -2
+3 -3
+4 -4
+5 -5
+6 -6
+7 -7
+8 -8
+9 -9
+10 -10
+11 -11
+12 -12
+13 -13
+14 -14
+15 -15
+16 -16
+17 -17
+18 -18
+19 -19
+20 -20
+21 -21
+22 -22
+23 -23
+24 -24
+25 -25
+26 -26
+27 -27
+28 -28
+29 -29
+30 -30
+31 -31
+32 -32
+33 -33
+34 -34
+35 -35
+36 -36
+37 -37
+38 -38
+39 -39
+40 -40
+41 -41
+42 -42
+43 -43
+44 -44
+45 -45
+46 -46
+47 -47
+48 -48
+49 -49
+50 -50
+51 -51
+52 -52
+53 -53
+54 -54
+55 -55
+56 -56
+57 -57
+58 -58
+59 -59
+60 -60
+61 -61
+62 -62
+63 -63
+64 -64
+65 -65
+66 -66
+67 -67
+68 -68
+69 -69
+70 -70
+71 -71
EOF
